40
1 0 38
2 0 57
2 1 92
3 0 59
3 1 11
3 2 83
4 0 95
4 1 41
4 2 87
4 3 77
5 0 6
5 1 28
5 2 19
5 3 55
5 4 97
6 0 94
6 1 66
6 2 85
6 3 8
6 4 38
6 5 13
7 0 50
7 1 44
7 2 78
7 3 61
7 4 8
7 5 11
7 6 50
8 0 68
8 1 76
8 2 30
8 3 4
8 4 34
8 5 19
8 6 89
8 7 41
9 0 29
9 1 57
9 2 2
9 3 52
9 4 38
9 5 85
9 6 88
9 7 49
9 8 58
10 0 84
10 1 92
10 2 94
10 3 60
10 4 76
10 5 21
10 6 58
10 7 32
10 8 39
10 9 46
11 0 84
11 1 32
11 2 82
11 3 8
11 4 32
11 5 41
11 6 63
11 7 28
11 8 20
11 9 81
11 10 85
12 0 2
12 1 90
12 2 41
12 3 4
12 4 37
12 5 73
12 6 44
12 7 45
12 8 57
12 9 33
12 10 7
12 11 95
13 0 85
13 1 95
13 2 20
13 3 36
13 4 82
13 5 8
13 6 32
13 7 18
13 8 93
13 9 86
13 10 96
13 11 100
13 12 39
14 0 32
14 1 46
14 2 1
14 3 50
14 4 45
14 5 93
14 6 49
14 7 27
14 8 42
14 9 62
14 10 100
14 11 85
14 12 75
14 13 100
15 0 84
15 1 5
15 2 10
15 3 46
15 4 6
15 5 7
15 6 84
15 7 27
15 8 69
15 9 10
15 10 88
15 11 26
15 12 48
15 13 57
15 14 21
16 0 39
16 1 7
16 2 6
16 3 14
16 4 9
16 5 22
16 6 24
16 7 24
16 8 15
16 9 87
16 10 29
16 11 47
16 12 44
16 13 97
16 14 76
16 15 99
17 0 83
17 1 28
17 2 69
17 3 63
17 4 95
17 5 70
17 6 58
17 7 2
17 8 86
17 9 85
17 10 43
17 11 83
17 12 60
17 13 87
17 14 99
17 15 68
17 16 22
18 0 66
18 1 2
18 2 64
18 3 92
18 4 12
18 5 91
18 6 32
18 7 10
18 8 3
18 9 37
18 10 11
18 11 76
18 12 68
18 13 75
18 14 94
18 15 35
18 16 34
18 17 18
19 0 65
19 1 5
19 2 19
19 3 92
19 4 87
19 5 19
19 6 39
19 7 20
19 8 4
19 9 8
19 10 28
19 11 60
19 12 85
19 13 70
19 14 93
19 15 95
19 16 26
19 17 81
19 18 57
20 0 96
20 1 5
20 2 56
20 3 65
20 4 30
20 5 35
20 6 67
20 7 41
20 8 71
20 9 62
20 10 60
20 11 37
20 12 45
20 13 18
20 14 46
20 15 3
20 16 16
20 17 13
20 18 54
20 19 72
21 0 82
21 1 29
21 2 64
21 3 45
21 4 52
21 5 51
21 6 60
21 7 99
21 8 26
21 9 47
21 10 78
21 11 81
21 12 77
21 13 88
21 14 31
21 15 45
21 16 28
21 17 56
21 18 42
21 19 43
21 20 73
22 0 96
22 1 10
22 2 86
22 3 60
22 4 99
22 5 99
22 6 29
22 7 73
22 8 30
22 9 18
22 10 50
22 11 54
22 12 40
22 13 30
22 14 29
22 15 49
22 16 7
22 17 19
22 18 33
22 19 94
22 20 16
22 21 93
23 0 85
23 1 55
23 2 72
23 3 7
23 4 63
23 5 87
23 6 91
23 7 27
23 8 39
23 9 92
23 10 21
23 11 79
23 12 88
23 13 75
23 14 94
23 15 49
23 16 5
23 17 35
23 18 6
23 19 26
23 20 7
23 21 41
23 22 70
24 0 7
24 1 30
24 2 76
24 3 98
24 4 5
24 5 20
24 6 51
24 7 5
24 8 32
24 9 94
24 10 26
24 11 37
24 12 39
24 13 28
24 14 83
24 15 72
24 16 47
24 17 77
24 18 39
24 19 35
24 20 92
24 21 48
24 22 2
24 23 45
25 0 73
25 1 77
25 2 96
25 3 66
25 4 71
25 5 84
25 6 18
25 7 37
25 8 87
25 9 1
25 10 2
25 11 11
25 12 6
25 13 3
25 14 90
25 15 8
25 16 89
25 17 87
25 18 53
25 19 91
25 20 57
25 21 73
25 22 10
25 23 89
25 24 9
26 0 21
26 1 14
26 2 50
26 3 95
26 4 7
26 5 38
26 6 85
26 7 28
26 8 75
26 9 58
26 10 36
26 11 16
26 12 69
26 13 17
26 14 91
26 15 43
26 16 32
26 17 28
26 18 17
26 19 26
26 20 83
26 21 34
26 22 85
26 23 36
26 24 50
26 25 54
27 0 9
27 1 54
27 2 1
27 3 63
27 4 34
27 5 97
27 6 100
27 7 93
27 8 32
27 9 47
27 10 86
27 11 57
27 12 83
27 13 49
27 14 45
27 15 27
27 16 78
27 17 84
27 18 41
27 19 22
27 20 49
27 21 18
27 22 96
27 23 79
27 24 12
27 25 75
27 26 60
28 0 31
28 1 97
28 2 14
28 3 6
28 4 92
28 5 77
28 6 80
28 7 27
28 8 35
28 9 37
28 10 64
28 11 42
28 12 23
28 13 40
28 14 9
28 15 24
28 16 3
28 17 82
28 18 33
28 19 100
28 20 100
28 21 36
28 22 49
28 23 6
28 24 55
28 25 37
28 26 18
28 27 89
29 0 97
29 1 56
29 2 64
29 3 74
29 4 43
29 5 54
29 6 26
29 7 62
29 8 71
29 9 33
29 10 31
29 11 10
29 12 6
29 13 8
29 14 16
29 15 18
29 16 10
29 17 72
29 18 38
29 19 21
29 20 77
29 21 41
29 22 32
29 23 51
29 24 55
29 25 75
29 26 25
29 27 42
29 28 74
30 0 36
30 1 2
30 2 68
30 3 26
30 4 16
30 5 92
30 6 44
30 7 34
30 8 50
30 9 23
30 10 47
30 11 18
30 12 4
30 13 38
30 14 4
30 15 29
30 16 77
30 17 11
30 18 82
30 19 12
30 20 99
30 21 72
30 22 77
30 23 29
30 24 74
30 25 46
30 26 55
30 27 46
30 28 21
30 29 60
31 0 36
31 1 55
31 2 13
31 3 72
31 4 92
31 5 8
31 6 4
31 7 38
31 8 11
31 9 64
31 10 6
31 11 96
31 12 54
31 13 83
31 14 47
31 15 62
31 16 91
31 17 27
31 18 39
31 19 43
31 20 12
31 21 26
31 22 8
31 23 28
31 24 32
31 25 52
31 26 93
31 27 8
31 28 52
31 29 89
31 30 99
32 0 23
32 1 27
32 2 89
32 3 71
32 4 64
32 5 67
32 6 70
32 7 20
32 8 49
32 9 76
32 10 77
32 11 8
32 12 71
32 13 80
32 14 23
32 15 94
32 16 79
32 17 26
32 18 80
32 19 87
32 20 37
32 21 48
32 22 83
32 23 47
32 24 85
32 25 10
32 26 66
32 27 46
32 28 79
32 29 4
32 30 54
32 31 80
33 0 97
33 1 45
33 2 68
33 3 83
33 4 37
33 5 81
33 6 17
33 7 91
33 8 36
33 9 43
33 10 94
33 11 51
33 12 93
33 13 65
33 14 94
33 15 89
33 16 76
33 17 77
33 18 18
33 19 61
33 20 38
33 21 37
33 22 34
33 23 59
33 24 81
33 25 55
33 26 13
33 27 61
33 28 39
33 29 41
33 30 57
33 31 17
33 32 70
34 0 53
34 1 80
34 2 37
34 3 69
34 4 48
34 5 22
34 6 12
34 7 61
34 8 58
34 9 3
34 10 80
34 11 22
34 12 37
34 13 44
34 14 28
34 15 38
34 16 62
34 17 8
34 18 80
34 19 98
34 20 70
34 21 45
34 22 26
34 23 97
34 24 75
34 25 50
34 26 82
34 27 75
34 28 97
34 29 50
34 30 85
34 31 21
34 32 89
34 33 96
35 0 72
35 1 39
35 2 48
35 3 14
35 4 88
35 5 25
35 6 50
35 7 48
35 8 27
35 9 20
35 10 47
35 11 1
35 12 3
35 13 38
35 14 94
35 15 48
35 16 91
35 17 76
35 18 24
35 19 85
35 20 10
35 21 56
35 22 81
35 23 31
35 24 15
35 25 71
35 26 52
35 27 11
35 28 26
35 29 17
35 30 100
35 31 64
35 32 24
35 33 25
35 34 65
36 0 75
36 1 72
36 2 65
36 3 74
36 4 22
36 5 54
36 6 44
36 7 13
36 8 66
36 9 37
36 10 34
36 11 20
36 12 57
36 13 3
36 14 16
36 15 5
36 16 17
36 17 91
36 18 5
36 19 29
36 20 9
36 21 63
36 22 5
36 23 74
36 24 34
36 25 84
36 26 100
36 27 93
36 28 95
36 29 63
36 30 94
36 31 32
36 32 24
36 33 8
36 34 41
36 35 46
37 0 54
37 1 92
37 2 36
37 3 62
37 4 99
37 5 34
37 6 51
37 7 62
37 8 64
37 9 31
37 10 51
37 11 83
37 12 89
37 13 10
37 14 14
37 15 59
37 16 16
37 17 71
37 18 30
37 19 55
37 20 21
37 21 51
37 22 78
37 23 65
37 24 60
37 25 35
37 26 86
37 27 70
37 28 9
37 29 70
37 30 26
37 31 90
37 32 5
37 33 84
37 34 10
37 35 67
37 36 16
38 0 7
38 1 76
38 2 57
38 3 1
38 4 38
38 5 82
38 6 36
38 7 25
38 8 11
38 9 57
38 10 37
38 11 60
38 12 66
38 13 72
38 14 60
38 15 72
38 16 4
38 17 17
38 18 52
38 19 72
38 20 1
38 21 12
38 22 27
38 23 1
38 24 4
38 25 98
38 26 75
38 27 54
38 28 25
38 29 52
38 30 89
38 31 76
38 32 32
38 33 50
38 34 97
38 35 90
38 36 69
38 37 75
39 0 94
39 1 15
39 2 78
39 3 13
39 4 94
39 5 16
39 6 94
39 7 19
39 8 59
39 9 78
39 10 47
39 11 29
39 12 64
39 13 87
39 14 81
39 15 43
39 16 20
39 17 83
39 18 67
39 19 30
39 20 55
39 21 90
39 22 1
39 23 99
39 24 19
39 25 72
39 26 78
39 27 57
39 28 71
39 29 37
39 30 2
39 31 52
39 32 71
39 33 5
39 34 76
39 35 49
39 36 70
39 37 11
39 38 66
